
Gurobi 10.0.0 (win64) logging started Tue Apr 16 10:16:46 2024

Set parameter LogFile to value "C:\Users\ealvarezq\Documents\GitHub\Comillas\Models\JointResearch\05. Models\06.Benchmarking\D.Representative_days_based_on_RES_and_Demand\IEEE118_mod1_ByStages_nc80/openStarNet_IEEE118_mod1_ByStages_nc80.log"
Set parameter Method to value 2
Set parameter MIPFocus to value 1
Set parameter Presolve to value 2
Set parameter RINS to value 100
Set parameter MIPGap to value 0.01
Set parameter Threads to value 9
Set parameter TimeLimit to value 259200
Set parameter IterationLimit to value 760000000
Gurobi Optimizer version 10.0.0 build v10.0.0rc2 (win64)

CPU model: Intel(R) Core(TM) i7-8700 CPU @ 3.20GHz, instruction set [SSE2|AVX|AVX2]
Thread count: 6 physical cores, 12 logical processors, using up to 9 threads

Optimize a model with 113684 rows, 84071 columns and 292879 nonzeros
Model fingerprint: 0x9eb05dd9
Variable types: 84037 continuous, 34 integer (34 binary)
Coefficient statistics:
  Matrix range     [2e-03, 9e+03]
  Objective range  [1e+00, 1e+00]
  Bounds range     [1e-04, 3e+00]
  RHS range        [1e-04, 3e+00]
Presolve removed 76948 rows and 38951 columns
Presolve time: 0.44s
Presolved: 36736 rows, 45120 columns, 134256 nonzeros
Variable types: 45086 continuous, 34 integer (34 binary)
Root relaxation presolved: 36736 rows, 45120 columns, 134256 nonzeros

Root barrier log...

Ordering time: 0.02s

Barrier statistics:
 Dense cols : 34
 AA' NZ     : 1.665e+05
 Factor NZ  : 6.444e+05 (roughly 40 MB of memory)
 Factor Ops : 1.347e+07 (less than 1 second per iteration)
 Threads    : 8

                  Objective                Residual
Iter       Primal          Dual         Primal    Dual     Compl     Time
   0   8.93483627e+06 -6.28790039e+08  1.56e+01 1.12e+03  2.57e+04     1s
   1   2.16036758e+06 -2.41288107e+08  3.43e+00 5.96e-09  5.30e+03     1s
   2   5.89288320e+05 -1.23054711e+08  6.35e-01 8.16e-09  1.58e+03     1s
   3   3.58983740e+05 -2.57725594e+07  1.93e-01 1.86e-09  3.03e+02     1s
   4   2.25832442e+05 -3.38122216e+06  1.75e-02 2.48e-10  3.48e+01     1s
   5   1.55945189e+05 -1.04247572e+06  7.79e-03 1.13e-10  1.13e+01     1s
   6   8.08594862e+04 -6.23275577e+05  2.92e-03 5.82e-11  6.55e+00     1s
   7   3.97616424e+04 -2.03524797e+05  1.13e-03 5.64e-11  2.25e+00     1s
   8   1.89600930e+04 -3.47564525e+04  4.03e-04 1.46e-11  4.97e-01     1s
   9   1.31226993e+04 -1.60080431e+04  2.49e-04 5.91e-12  2.69e-01     1s
  10   7.16461944e+03 -7.79709249e+03  1.10e-04 2.81e-12  1.38e-01     1s
  11   3.79424000e+03 -3.05768606e+03  4.11e-05 6.56e-12  6.33e-02     1s
  12   2.55708222e+03 -7.52402285e+02  1.90e-05 3.81e-12  3.06e-02     1s
  13   2.15161361e+03 -1.06407994e+02  1.24e-05 5.60e-12  2.09e-02     1s
  14   1.92603721e+03  3.94452457e+02  8.86e-06 3.01e-12  1.41e-02     1s
  15   1.68158439e+03  7.06879274e+02  5.23e-06 2.92e-12  9.00e-03     1s
  16   1.53901811e+03  9.45379686e+02  3.18e-06 2.91e-12  5.48e-03     1s
  17   1.43843845e+03  1.13972509e+03  1.78e-06 4.61e-12  2.76e-03     1s
  18   1.39043842e+03  1.20139248e+03  1.12e-06 3.01e-12  1.75e-03     1s
  19   1.34948651e+03  1.25994072e+03  5.73e-07 3.50e-12  8.27e-04     1s
  20   1.33421955e+03  1.27536894e+03  3.76e-07 3.90e-12  5.44e-04     1s
  21   1.31763865e+03  1.28825982e+03  1.70e-07 4.06e-12  2.71e-04     1s
  22   1.31146488e+03  1.29460143e+03  9.59e-08 5.55e-12  1.56e-04     1s
  23   1.30535018e+03  1.30065432e+03  2.29e-08 4.90e-12  4.34e-05     1s
  24   1.30416837e+03  1.30186552e+03  9.27e-09 4.10e-12  2.13e-05     1s
  25   1.30351834e+03  1.30283851e+03  1.08e-08 4.33e-12  6.28e-06     1s
  26   1.30331524e+03  1.30322379e+03  9.54e-09 2.39e-12  8.45e-07     1s
  27   1.30326792e+03  1.30325560e+03  1.07e-09 6.44e-12  1.14e-07     1s
  28   1.30326029e+03  1.30325666e+03  8.47e-09 5.33e-12  3.35e-08     1s
  29   1.30325783e+03  1.30325756e+03  2.35e-09 5.64e-12  2.46e-09     1s
  30   1.30325765e+03  1.30325765e+03  4.92e-10 4.78e-12  4.32e-11     1s

Barrier solved model in 30 iterations and 1.38 seconds (1.31 work units)
Optimal objective 1.30325765e+03


Root relaxation: objective 1.303258e+03, 3306 iterations, 1.27 seconds (1.24 work units)

    Nodes    |    Current Node    |     Objective Bounds      |     Work
 Expl Unexpl |  Obj  Depth IntInf | Incumbent    BestBd   Gap | It/Node Time

     0     0 1303.25765    0   22          - 1303.25765      -     -    2s
H    0     0                    8615.0582280 1303.25765  84.9%     -    4s
H    0     0                    4390.3324085 1303.25765  70.3%     -    5s
     0     0 1322.97017    0   21 4390.33241 1322.97017  69.9%     -    7s
     0     0 1323.32540    0   20 4390.33241 1323.32540  69.9%     -    8s
     0     0 1323.33005    0   20 4390.33241 1323.33005  69.9%     -    8s
     0     0 1326.80623    0   20 4390.33241 1326.80623  69.8%     -    9s
H    0     0                    1493.8580858 1326.80623  11.2%     -   10s
     0     0 1326.82566    0   20 1493.85809 1326.82566  11.2%     -   10s
     0     0 1328.22857    0   18 1493.85809 1328.22857  11.1%     -   12s
     0     0 1328.28553    0   18 1493.85809 1328.28553  11.1%     -   13s
     0     0 1328.28555    0   18 1493.85809 1328.28555  11.1%     -   13s
     0     0 1328.31484    0   18 1493.85809 1328.31484  11.1%     -   14s
     0     0 1328.31484    0   18 1493.85809 1328.31484  11.1%     -   14s
     0     0 1328.39047    0   18 1493.85809 1328.39047  11.1%     -   15s
H    0     0                    1446.0694918 1328.39047  8.14%     -  101s
     0     2 1328.39047    0   18 1446.06949 1328.39047  8.14%     -  102s
     1     4 1355.66612    1   19 1446.06949 1328.45202  8.13%  4525  105s
     7    10 1395.26131    3   16 1446.06949 1359.72076  5.97%  2584  112s
    13    17 1425.64629    4   18 1446.06949 1362.71826  5.76%  2328  115s
    22    24 1440.76025    5   18 1446.06949 1368.39601  5.37%  1884  120s
    40    28     cutoff    6      1446.06949 1368.50111  5.36%  1685  127s
    49    31 1416.73010    7   14 1446.06949 1368.50111  5.36%  1547  130s
    60    32 1433.74847    9   13 1446.06949 1375.86149  4.86%  1444  135s
    85    36     cutoff   12      1446.06949 1375.86149  4.86%  1404  142s
   116    51 1421.58351   12    8 1446.06949 1375.86149  4.86%  1268  146s
   156    40     cutoff   18      1446.06949 1375.86149  4.86%  1058  152s
   184    43     cutoff   16      1446.06949 1384.90964  4.23%  1018  157s
   203    46 1391.54204    7   13 1446.06949 1384.91708  4.23%  1007  167s
   246    76     cutoff    8      1446.06949 1391.83045  3.75%   915  173s
   287    68 1427.98664    8   12 1446.06949 1391.83045  3.75%   829  175s
   377    69 1411.84038    9   11 1446.06949 1391.83045  3.75%   727  183s
   417    72 1396.46864    9   11 1446.06949 1396.46864  3.43%   713  188s
   450    79 1424.84280   10   10 1446.06949 1396.46864  3.43%   707  191s
   577    83 1444.99035   12    7 1446.06949 1403.46971  2.95%   613  196s
   636    70     cutoff   12      1446.06949 1419.25177  1.85%   582  201s
   728    59 1438.73436   15    5 1446.06949 1422.34966  1.64%   544  205s
   801    31 1440.69884   14    6 1446.06949 1427.91391  1.26%   521  210s

Cutting planes:
  Gomory: 1
  Implied bound: 157
  MIR: 320
  Flow cover: 5
  Relax-and-lift: 3

Explored 931 nodes (456471 simplex iterations) in 212.93 seconds (372.43 work units)
Thread count was 9 (of 12 available processors)

Solution count 4: 1446.07 1493.86 4390.33 8615.06 

Optimal solution found (tolerance 1.00e-02)
Best objective 1.446069491839e+03, best bound 1.441279742250e+03, gap 0.3312%

Gurobi 10.0.0 (win64) logging started Tue Apr 16 10:20:25 2024

Set parameter LogFile to value "C:\Users\ealvarezq\Documents\GitHub\Comillas\Models\JointResearch\05. Models\06.Benchmarking\D.Representative_days_based_on_RES_and_Demand\IEEE118_mod1_ByStages_nc80/openStarNet_IEEE118_mod1_ByStages_nc80.log"
Set parameter Method to value 2
Set parameter MIPFocus to value 1
Set parameter Presolve to value 2
Set parameter RINS to value 100
Set parameter MIPGap to value 0.01
Set parameter Threads to value 9
Set parameter TimeLimit to value 259200
Set parameter IterationLimit to value 760000000
Gurobi Optimizer version 10.0.0 build v10.0.0rc2 (win64)

CPU model: Intel(R) Core(TM) i7-8700 CPU @ 3.20GHz, instruction set [SSE2|AVX|AVX2]
Thread count: 6 physical cores, 12 logical processors, using up to 9 threads

Optimize a model with 113684 rows, 84037 columns and 281965 nonzeros
Model fingerprint: 0x30ad4f50
Coefficient statistics:
  Matrix range     [2e-03, 9e+03]
  Objective range  [1e+00, 1e+00]
  Bounds range     [1e-04, 3e+00]
  RHS range        [1e-04, 3e+02]
Presolve removed 84791 rows and 36979 columns
Presolve time: 0.17s
Presolved: 28893 rows, 47227 columns, 113640 nonzeros

Ordering time: 0.00s

Barrier statistics:
 AA' NZ     : 9.559e+04
 Factor NZ  : 3.801e+05 (roughly 34 MB of memory)
 Factor Ops : 5.504e+06 (less than 1 second per iteration)
 Threads    : 9

                  Objective                Residual
Iter       Primal          Dual         Primal    Dual     Compl     Time
   0   1.46133879e+07 -3.23976835e+08  8.85e+01 7.66e+01  1.20e+04     0s
   1   1.94170944e+06 -9.41160307e+07  1.03e+01 1.14e-12  1.70e+03     0s
   2   4.42026376e+05 -1.74190728e+07  1.45e+00 1.14e-12  2.42e+02     0s
   3   1.82039772e+05 -2.89779523e+06  4.85e-02 7.39e-13  3.10e+01     0s
   4   8.02419526e+04 -4.91441731e+05  6.52e-03 2.73e-12  5.57e+00     0s
   5   3.01434102e+04 -1.30314550e+05  1.92e-03 1.48e-12  1.56e+00     0s
   6   1.05527424e+04 -3.49000686e+04  3.94e-04 7.96e-13  4.41e-01     0s
   7   7.60947446e+03 -1.30737685e+04  2.20e-04 2.56e-13  2.00e-01     0s
   8   4.76285050e+03 -4.67455900e+03  1.00e-04 3.05e-13  9.14e-02     0s
   9   3.66721442e+03 -1.72223068e+03  6.37e-05 2.21e-13  5.22e-02     0s
  10   2.65614271e+03 -1.36766413e+02  3.29e-05 1.94e-13  2.71e-02     0s
  11   2.22139935e+03  5.22948525e+02  2.05e-05 1.80e-13  1.65e-02     0s
  12   1.77200706e+03  1.00462557e+03  8.02e-06 2.79e-13  7.44e-03     0s
  13   1.63309668e+03  1.16279076e+03  4.47e-06 2.97e-13  4.56e-03     0s
  14   1.56831229e+03  1.28161098e+03  2.86e-06 2.42e-13  2.78e-03     0s
  15   1.49003292e+03  1.39086761e+03  9.36e-07 2.36e-13  9.61e-04     0s
  16   1.46444684e+03  1.41833490e+03  3.67e-07 2.36e-13  4.47e-04     0s
  17   1.45657163e+03  1.43427877e+03  2.09e-07 2.09e-13  2.16e-04     0s
  18   1.45249283e+03  1.43633476e+03  1.26e-07 1.78e-13  1.57e-04     0s
  19   1.44988868e+03  1.44129588e+03  7.36e-08 1.83e-13  8.33e-05     0s
  20   1.44756371e+03  1.44379986e+03  2.65e-08 3.23e-13  3.65e-05     1s
  21   1.44660217e+03  1.44557164e+03  8.67e-09 2.20e-13  9.98e-06     1s
  22   1.44618648e+03  1.44599244e+03  1.82e-09 3.10e-13  1.88e-06     1s
  23   1.44609175e+03  1.44605827e+03  3.26e-10 2.38e-13  3.24e-07     1s
  24   1.44607028e+03  1.44606883e+03  1.15e-10 2.14e-13  1.41e-08     1s
  25   1.44606949e+03  1.44606949e+03  7.96e-11 2.72e-13  2.16e-11     1s

Barrier solved model in 25 iterations and 0.58 seconds (0.52 work units)
Optimal objective 1.44606949e+03

Crossover log...

    8365 DPushes remaining with DInf 0.0000000e+00                 1s
       0 DPushes remaining with DInf 0.0000000e+00                 1s

     804 PPushes remaining with PInf 0.0000000e+00                 1s
       0 PPushes remaining with PInf 0.0000000e+00                 1s

  Push phase complete: Pinf 0.0000000e+00, Dinf 3.1766803e-12      1s

Iteration    Objective       Primal Inf.    Dual Inf.      Time
    2226    1.4460695e+03   0.000000e+00   0.000000e+00      1s

Solved in 2226 iterations and 0.83 seconds (0.67 work units)
Optimal objective  1.446069492e+03

Gurobi 11.0.0 (linux64) logging started Tue Aug  6 19:43:04 2024

Set parameter LogFile to value "/lustre1/scratch/348/vsc34888/JointResearch/05.Models/06.Benchmarking/D.Representative_days_based_on_RES_and_Demand/IEEE118_mod1_ByStages_nc80/openStarNet_IEEE118_mod1_ByStages_nc80.log"
Set parameter Method to value 2
Set parameter MIPFocus to value 1
Set parameter Presolve to value 2
Set parameter RINS to value 100
Set parameter MIPGap to value 0.01
Set parameter Threads to value 36
Set parameter TimeLimit to value 259200
Set parameter IterationLimit to value 760000000
Gurobi Optimizer version 11.0.0 build v11.0.0rc2 (linux64 - "Rocky Linux 8.9 (Green Obsidian)")

CPU model: Intel(R) Xeon(R) Gold 6240 CPU @ 2.60GHz, instruction set [SSE2|AVX|AVX2|AVX512]
Thread count: 36 physical cores, 36 logical processors, using up to 36 threads

Optimize a model with 113683 rows, 84037 columns and 281964 nonzeros
Model fingerprint: 0x0f7f2564
Coefficient statistics:
  Matrix range     [2e-03, 9e+03]
  Objective range  [1e+00, 1e+00]
  Bounds range     [1e-04, 3e+00]
  RHS range        [1e-04, 3e+00]
Presolve removed 86250 rows and 39623 columns
Presolve time: 0.15s
Presolved: 27433 rows, 45678 columns, 109310 nonzeros

Ordering time: 0.01s

Barrier statistics:
 AA' NZ     : 9.696e+04
 Factor NZ  : 3.528e+05 (roughly 30 MB of memory)
 Factor Ops : 4.976e+06 (less than 1 second per iteration)
 Threads    : 36

                  Objective                Residual
Iter       Primal          Dual         Primal    Dual     Compl     Time
   0   1.68321012e+07 -1.76706640e+08  1.16e+02 4.91e+01  9.13e+03     0s
   1   1.70571050e+06 -6.22522968e+07  1.01e+01 7.96e-13  1.13e+03     0s
   2   4.51186554e+05 -1.20241435e+07  1.52e+00 7.98e-13  1.73e+02     0s
   3   1.98678339e+05 -1.81994826e+06  1.24e-01 5.93e-13  2.19e+01     0s
   4   9.43507420e+04 -3.91124472e+05  3.50e-02 4.55e-13  5.00e+00     0s
   5   5.46887204e+04 -1.43505692e+05  1.60e-02 2.27e-13  2.01e+00     0s
   6   3.87175635e+04 -7.07077811e+04  9.14e-03 1.48e-13  1.10e+00     0s
   7   2.99689449e+04 -2.94757244e+04  5.46e-03 2.27e-13  5.97e-01     0s
   8   2.27360192e+04 -1.06366526e+04  2.56e-03 2.27e-13  3.34e-01     0s
   9   1.86030947e+04  3.16003535e+03  1.06e-03 2.27e-13  1.54e-01     0s
  10   1.73168202e+04  8.34969989e+03  7.02e-04 2.27e-13  8.97e-02     0s
  11   1.60103494e+04  1.11276732e+04  3.65e-04 2.27e-13  4.88e-02     0s
  12   1.53446607e+04  1.21846612e+04  2.08e-04 3.41e-13  3.16e-02     0s
  13   1.49894290e+04  1.34303347e+04  1.31e-04 2.27e-13  1.56e-02     0s
  14   1.47428149e+04  1.38213553e+04  8.21e-05 2.27e-13  9.21e-03     0s
  15   1.45268578e+04  1.40538526e+04  4.12e-05 2.27e-13  4.73e-03     0s
  16   1.44184199e+04  1.41613147e+04  2.12e-05 2.27e-13  2.57e-03     0s
  17   1.43624277e+04  1.42214887e+04  1.10e-05 2.27e-13  1.41e-03     0s
  18   1.43152898e+04  1.42810874e+04  2.72e-06 2.27e-13  3.42e-04     0s
  19   1.43061692e+04  1.42902326e+04  1.36e-06 2.27e-13  1.59e-04     0s
  20   1.42998216e+04  1.42952003e+04  4.30e-07 2.27e-13  4.62e-05     0s
  21   1.42977823e+04  1.42961900e+04  1.47e-07 2.27e-13  1.59e-05     0s
  22   1.42967689e+04  1.42965924e+04  1.32e-08 2.27e-13  1.76e-06     0s
  23   1.42966610e+04  1.42966537e+04  1.20e-10 2.27e-13  7.27e-08     0s
  24   1.42966590e+04  1.42966589e+04  7.14e-11 2.27e-13  1.09e-09     1s
  25   1.42966590e+04  1.42966590e+04  1.48e-10 2.27e-13  1.51e-12     1s

Barrier solved model in 25 iterations and 0.51 seconds (0.49 work units)
Optimal objective 1.42966590e+04

Crossover log...

    8084 DPushes remaining with DInf 0.0000000e+00                 1s
       0 DPushes remaining with DInf 0.0000000e+00                 1s

     633 PPushes remaining with PInf 0.0000000e+00                 1s
       0 PPushes remaining with PInf 0.0000000e+00                 1s

  Push phase complete: Pinf 0.0000000e+00, Dinf 5.9301440e-11      1s

Iteration    Objective       Primal Inf.    Dual Inf.      Time
    2408    1.4296659e+04   0.000000e+00   0.000000e+00      1s

Solved in 2408 iterations and 0.73 seconds (0.58 work units)
Optimal objective  1.429665896e+04

Gurobi 11.0.0 (linux64) logging started Tue Aug  6 19:43:18 2024

Set parameter LogFile to value "/lustre1/scratch/348/vsc34888/JointResearch/05.Models/06.Benchmarking/D.Representative_days_based_on_RES_and_Demand/IEEE118_mod1_ByStages_nc80/openStarNet_IEEE118_mod1_ByStages_nc80.log"
Set parameter Method to value 2
Set parameter MIPFocus to value 1
Set parameter Presolve to value 2
Set parameter RINS to value 100
Set parameter MIPGap to value 0.01
Set parameter Threads to value 36
Set parameter TimeLimit to value 259200
Set parameter IterationLimit to value 760000000
Gurobi Optimizer version 11.0.0 build v11.0.0rc2 (linux64 - "Rocky Linux 8.9 (Green Obsidian)")

CPU model: Intel(R) Xeon(R) Gold 6240 CPU @ 2.60GHz, instruction set [SSE2|AVX|AVX2|AVX512]
Thread count: 36 physical cores, 36 logical processors, using up to 36 threads

Optimize a model with 113683 rows, 84037 columns and 281964 nonzeros
Model fingerprint: 0x0f7f2564
Coefficient statistics:
  Matrix range     [2e-03, 9e+03]
  Objective range  [1e+00, 1e+00]
  Bounds range     [1e-04, 3e+00]
  RHS range        [1e-04, 3e+00]
Presolve removed 86250 rows and 39623 columns
Presolve time: 0.15s
Presolved: 27433 rows, 45678 columns, 109310 nonzeros

Ordering time: 0.01s

Barrier statistics:
 AA' NZ     : 9.696e+04
 Factor NZ  : 3.528e+05 (roughly 30 MB of memory)
 Factor Ops : 4.976e+06 (less than 1 second per iteration)
 Threads    : 36

                  Objective                Residual
Iter       Primal          Dual         Primal    Dual     Compl     Time
   0   1.68321012e+07 -1.76706640e+08  1.16e+02 4.91e+01  9.13e+03     0s
   1   1.70571050e+06 -6.22522968e+07  1.01e+01 7.96e-13  1.13e+03     0s
   2   4.51186554e+05 -1.20241435e+07  1.52e+00 7.98e-13  1.73e+02     0s
   3   1.98678339e+05 -1.81994826e+06  1.24e-01 5.93e-13  2.19e+01     0s
   4   9.43507420e+04 -3.91124472e+05  3.50e-02 4.55e-13  5.00e+00     0s
   5   5.46887204e+04 -1.43505692e+05  1.60e-02 2.27e-13  2.01e+00     0s
   6   3.87175635e+04 -7.07077811e+04  9.14e-03 1.48e-13  1.10e+00     0s
   7   2.99689449e+04 -2.94757244e+04  5.46e-03 2.27e-13  5.97e-01     0s
   8   2.27360192e+04 -1.06366526e+04  2.56e-03 2.27e-13  3.34e-01     0s
   9   1.86030947e+04  3.16003535e+03  1.06e-03 2.27e-13  1.54e-01     0s
  10   1.73168202e+04  8.34969989e+03  7.02e-04 2.27e-13  8.97e-02     0s
  11   1.60103494e+04  1.11276732e+04  3.65e-04 2.27e-13  4.88e-02     0s
  12   1.53446607e+04  1.21846612e+04  2.08e-04 3.41e-13  3.16e-02     0s
  13   1.49894290e+04  1.34303347e+04  1.31e-04 2.27e-13  1.56e-02     0s
  14   1.47428149e+04  1.38213553e+04  8.21e-05 2.27e-13  9.21e-03     0s
  15   1.45268578e+04  1.40538526e+04  4.12e-05 2.27e-13  4.73e-03     0s
  16   1.44184199e+04  1.41613147e+04  2.12e-05 2.27e-13  2.57e-03     0s
  17   1.43624277e+04  1.42214887e+04  1.10e-05 2.27e-13  1.41e-03     0s
  18   1.43152898e+04  1.42810874e+04  2.72e-06 2.27e-13  3.42e-04     0s
  19   1.43061692e+04  1.42902326e+04  1.36e-06 2.27e-13  1.59e-04     0s
  20   1.42998216e+04  1.42952003e+04  4.30e-07 2.27e-13  4.62e-05     0s
  21   1.42977823e+04  1.42961900e+04  1.47e-07 2.27e-13  1.59e-05     0s
  22   1.42967689e+04  1.42965924e+04  1.32e-08 2.27e-13  1.76e-06     0s
  23   1.42966610e+04  1.42966537e+04  1.20e-10 2.27e-13  7.27e-08     0s
  24   1.42966590e+04  1.42966589e+04  7.14e-11 2.27e-13  1.09e-09     0s
  25   1.42966590e+04  1.42966590e+04  1.48e-10 2.27e-13  1.51e-12     0s

Barrier solved model in 25 iterations and 0.50 seconds (0.49 work units)
Optimal objective 1.42966590e+04

Crossover log...

    8084 DPushes remaining with DInf 0.0000000e+00                 1s
       0 DPushes remaining with DInf 0.0000000e+00                 1s

     633 PPushes remaining with PInf 0.0000000e+00                 1s
       0 PPushes remaining with PInf 0.0000000e+00                 1s

  Push phase complete: Pinf 0.0000000e+00, Dinf 5.9301440e-11      1s

Iteration    Objective       Primal Inf.    Dual Inf.      Time
    2408    1.4296659e+04   0.000000e+00   0.000000e+00      1s

Solved in 2408 iterations and 0.71 seconds (0.58 work units)
Optimal objective  1.429665896e+04

Gurobi 11.0.3 (win64) logging started Thu Sep 19 16:41:01 2024

Set parameter LogFile to value "C:\Users\ealvarezq\Desktop\D.Representative_days_based_on_RES_and_Demand\IEEE118_mod1_ByStages_nc80/openStarNet_IEEE118_mod1_ByStages_nc80.log"
Set parameter Method to value 2
Set parameter MIPFocus to value 1
Set parameter Presolve to value 2
Set parameter RINS to value 100
Set parameter MIPGap to value 0.01
Set parameter Threads to value 24
Set parameter TimeLimit to value 259200
Set parameter IterationLimit to value 760000000
Gurobi Optimizer version 11.0.3 build v11.0.3rc0 (win64 - Windows Server 2019.0 (17763.2))

CPU model: AMD Ryzen Threadripper PRO 3955WX 16-Cores, instruction set [SSE2|AVX|AVX2]
Thread count: 16 physical cores, 32 logical processors, using up to 24 threads

Optimize a model with 113683 rows, 84144 columns and 293024 nonzeros
Model fingerprint: 0xe4b20116
Variable types: 84110 continuous, 34 integer (34 binary)
Coefficient statistics:
  Matrix range     [2e-03, 9e+03]
  Objective range  [1e+00, 1e+00]
  Bounds range     [1e-04, 3e+00]
  RHS range        [2e-04, 3e+00]
Presolve removed 76950 rows and 39003 columns
Presolve time: 0.88s
Presolved: 36733 rows, 45141 columns, 134269 nonzeros
Variable types: 45107 continuous, 34 integer (34 binary)
Root relaxation presolved: 36733 rows, 45141 columns, 134269 nonzeros

Root barrier log...

Ordering time: 0.03s

Barrier statistics:
 Dense cols : 34
 AA' NZ     : 1.665e+05
 Factor NZ  : 6.443e+05 (roughly 40 MB of memory)
 Factor Ops : 1.347e+07 (less than 1 second per iteration)
 Threads    : 23

                  Objective                Residual
Iter       Primal          Dual         Primal    Dual     Compl     Time
   0   8.79786131e+06 -5.85907946e+08  1.54e+01 8.62e+02  2.37e+04     2s
   1   2.11360707e+06 -2.22591151e+08  3.35e+00 1.19e-08  4.84e+03     2s
   2   6.39386946e+05 -1.78195053e+08  7.31e-01 8.70e-09  2.20e+03     2s
   3   3.93441239e+05 -3.27415017e+07  2.64e-01 3.04e-09  3.95e+02     2s
   4   2.41433718e+05 -7.03204375e+06  1.97e-02 5.77e-10  6.97e+01     3s
   5   1.68327224e+05 -1.78536024e+06  6.70e-03 1.40e-10  1.83e+01     3s
   6   7.86088211e+04 -4.42042798e+05  2.11e-03 3.32e-11  4.83e+00     3s
   7   3.40065953e+04 -9.55906352e+04  7.05e-04 8.64e-12  1.20e+00     3s
   8   1.57670333e+04 -3.60708854e+04  2.53e-04 3.18e-12  4.79e-01     4s
   9   9.93984526e+03 -1.92855278e+04  1.35e-04 3.20e-12  2.70e-01     4s
  10   5.81152842e+03 -4.76446008e+03  6.30e-05 2.88e-12  9.76e-02     4s
  11   3.81370128e+03 -2.18489541e+03  3.42e-05 2.07e-12  5.54e-02     5s
  12   2.76795450e+03 -1.64411118e+02  2.06e-05 2.51e-12  2.71e-02     5s
  13   2.02678219e+03  3.50200377e+02  1.13e-05 2.54e-12  1.55e-02     5s
  14   1.57325284e+03  7.06405176e+02  5.70e-06 4.32e-12  8.00e-03     5s
  15   1.38662834e+03  9.23136037e+02  3.47e-06 5.12e-12  4.28e-03     6s
  16   1.23146308e+03  9.76244036e+02  1.65e-06 2.65e-12  2.36e-03     6s
  17   1.17810566e+03  1.02510445e+03  1.04e-06 1.68e-12  1.41e-03     7s
  18   1.15143353e+03  1.04514863e+03  7.38e-07 2.87e-12  9.81e-04     7s
  19   1.12803563e+03  1.05841037e+03  4.76e-07 3.24e-12  6.43e-04     7s
  20   1.11173932e+03  1.07149686e+03  2.95e-07 3.13e-12  3.72e-04     7s
  21   1.10034125e+03  1.07633043e+03  1.70e-07 2.93e-12  2.22e-04     8s
  22   1.09018065e+03  1.08188943e+03  5.93e-08 2.01e-12  7.65e-05     8s
  23   1.08813790e+03  1.08322213e+03  3.84e-08 4.15e-12  4.54e-05     9s
  24   1.08664850e+03  1.08363642e+03  2.32e-08 3.65e-12  2.78e-05     9s
  25   1.08527964e+03  1.08383245e+03  9.01e-09 2.93e-12  1.34e-05     9s
  26   1.08491812e+03  1.08416924e+03  7.07e-09 3.49e-12  6.91e-06     9s
  27   1.08471000e+03  1.08428529e+03  5.34e-09 6.08e-12  3.92e-06    10s
  28   1.08449642e+03  1.08434621e+03  3.60e-09 4.01e-12  1.39e-06    10s
  29   1.08441467e+03  1.08436176e+03  2.01e-09 2.97e-12  4.88e-07    11s
  30   1.08437691e+03  1.08437398e+03  4.70e-09 3.75e-12  2.70e-08    12s
  31   1.08437559e+03  1.08437506e+03  2.92e-09 2.90e-12  4.92e-09    12s
  32   1.08437540e+03  1.08437533e+03  2.49e-10 3.15e-12  6.56e-10    12s
  33   1.08437540e+03  1.08437540e+03  1.06e-09 2.90e-12  2.56e-11    12s

Barrier solved model in 33 iterations and 12.34 seconds (1.39 work units)
Optimal objective 1.08437540e+03


Root crossover log...

    8015 DPushes remaining with DInf 0.0000000e+00                12s
       0 DPushes remaining with DInf 0.0000000e+00                13s

    1585 PPushes remaining with PInf 3.5036956e-06                13s
       0 PPushes remaining with PInf 0.0000000e+00                13s

  Push phase complete: Pinf 0.0000000e+00, Dinf 2.8318736e-11     13s


Root simplex log...

Iteration    Objective       Primal Inf.    Dual Inf.      Time
    3056    1.0843754e+03   0.000000e+00   0.000000e+00     13s
    3056    1.0843754e+03   0.000000e+00   0.000000e+00     13s

Root relaxation: objective 1.084375e+03, 3056 iterations, 11.75 seconds (1.12 work units)

    Nodes    |    Current Node    |     Objective Bounds      |     Work
 Expl Unexpl |  Obj  Depth IntInf | Incumbent    BestBd   Gap | It/Node Time

     0     0 1084.37540    0   22          - 1084.37540      -     -   13s
H    0     0                    7202.8454664 1084.37540  84.9%     -   16s
H    0     0                    3202.3346015 1084.37540  66.1%     -   18s
     0     0 1109.85995    0   22 3202.33460 1109.85995  65.3%     -   22s
H    0     0                    1338.0948293 1109.85995  17.1%     -   23s
     0     0 1110.59966    0   22 1338.09483 1110.59966  17.0%     -   25s
     0     0 1110.59966    0   22 1338.09483 1110.59966  17.0%     -   26s
     0     0 1110.59966    0   22 1338.09483 1110.59966  17.0%     -   26s
     0     0 1110.59966    0   22 1338.09483 1110.59966  17.0%     -   26s
     0     0 1113.86645    0   21 1338.09483 1113.86645  16.8%     -   28s
     0     0 1113.89638    0   21 1338.09483 1113.89638  16.8%     -   29s
     0     0 1113.89666    0   21 1338.09483 1113.89666  16.8%     -   29s
     0     0 1114.50889    0   21 1338.09483 1114.50889  16.7%     -   31s
     0     0 1114.77826    0   21 1338.09483 1114.77826  16.7%     -   32s
     0     0 1114.77919    0   21 1338.09483 1114.77919  16.7%     -   34s
     0     0 1114.81688    0   21 1338.09483 1114.81688  16.7%     -   36s
H    0     0                    1245.2742440 1114.81688  10.5%     -  283s
     0     2 1114.81688    0   21 1245.27424 1114.81688  10.5%     -  285s
     3     8 1180.35261    2   18 1245.27424 1120.96892  10.0%  1582  294s
     7    14     cutoff    3      1245.27424 1128.37511  9.39%  2385  299s
    15    20 1157.18847    4   17 1245.27424 1152.76649  7.43%  2180  305s
    49    36     cutoff    6      1245.27424 1165.68360  6.39%  1577  315s
    73    42 1181.94230    7   14 1245.27424 1171.74732  5.90%  1517  323s
    97    50 1189.72001    8   14 1245.27424 1181.98337  5.08%  1345  327s
   121    46 1192.76082    9   13 1245.27424 1181.98337  5.08%  1219  331s
   176    63 1198.52650   10   11 1245.27424 1181.98337  5.08%   999  337s
   238    51     cutoff   12      1245.27424 1181.98337  5.08%   845  340s
   305    62 1208.04274   11   11 1245.27424 1181.98337  5.08%   747  345s
   437    45     cutoff   12      1245.27424 1181.98337  5.08%   614  351s
   533    18     cutoff   15      1245.27424 1195.10424  4.03%   563  358s
   570    19 1230.92599    9   11 1245.27424 1195.38035  4.01%   551  361s
   591    17 1238.26404   10   10 1245.27424 1199.27791  3.69%   538  398s
   608    17     cutoff   11      1245.27424 1204.31433  3.29%   535  401s
   688    14     cutoff   15      1245.27424 1214.23751  2.49%   521  405s

Cutting planes:
  Gomory: 2
  Implied bound: 112
  MIR: 335
  RLT: 1

Explored 743 nodes (382696 simplex iterations) in 407.12 seconds (328.24 work units)
Thread count was 24 (of 32 available processors)

Solution count 4: 1245.27 1338.09 3202.33 7202.85 

Optimal solution found (tolerance 1.00e-02)
Best objective 1.245274243976e+03, best bound 1.235506064056e+03, gap 0.7844%

Gurobi 11.0.3 (win64) logging started Thu Sep 19 16:48:26 2024

Set parameter LogFile to value "C:\Users\ealvarezq\Desktop\D.Representative_days_based_on_RES_and_Demand\IEEE118_mod1_ByStages_nc80/openStarNet_IEEE118_mod1_ByStages_nc80.log"
Set parameter Method to value 2
Set parameter MIPFocus to value 1
Set parameter Presolve to value 2
Set parameter RINS to value 100
Set parameter MIPGap to value 0.01
Set parameter Threads to value 24
Set parameter TimeLimit to value 259200
Set parameter IterationLimit to value 760000000
Gurobi Optimizer version 11.0.3 build v11.0.3rc0 (win64 - Windows Server 2019.0 (17763.2))

CPU model: AMD Ryzen Threadripper PRO 3955WX 16-Cores, instruction set [SSE2|AVX|AVX2]
Thread count: 16 physical cores, 32 logical processors, using up to 24 threads

Optimize a model with 113683 rows, 84110 columns and 282110 nonzeros
Model fingerprint: 0x75299a1a
Coefficient statistics:
  Matrix range     [2e-03, 9e+03]
  Objective range  [1e+00, 1e+00]
  Bounds range     [1e-04, 3e+00]
  RHS range        [2e-04, 3e+02]
Presolve removed 84540 rows and 36753 columns
Presolve time: 0.26s
Presolved: 29143 rows, 47528 columns, 113952 nonzeros

Ordering time: 0.02s

Barrier statistics:
 AA' NZ     : 9.672e+04
 Factor NZ  : 3.883e+05 (roughly 34 MB of memory)
 Factor Ops : 5.704e+06 (less than 1 second per iteration)
 Threads    : 24

                  Objective                Residual
Iter       Primal          Dual         Primal    Dual     Compl     Time
   0   1.58378100e+07 -2.67248015e+08  9.42e+01 8.74e+01  1.04e+04     1s
   1   2.03583909e+06 -7.52288844e+07  1.08e+01 9.09e-13  1.41e+03     1s
   2   4.47516996e+05 -1.55618288e+07  1.55e+00 9.09e-13  2.16e+02     1s
   3   1.67289778e+05 -2.32316889e+06  5.96e-02 6.82e-13  2.51e+01     1s
   4   6.43683322e+04 -3.76447738e+05  1.15e-02 4.26e-13  4.29e+00     1s
   5   2.07510981e+04 -6.83353129e+04  2.62e-03 2.63e-13  8.60e-01     1s
   6   9.93928632e+03 -2.35661269e+04  8.16e-04 2.35e-13  3.23e-01     1s
   7   6.77118504e+03 -8.92279302e+03  4.27e-04 2.37e-13  1.51e-01     1s
   8   4.69864883e+03 -3.61261378e+03  2.46e-04 2.75e-13  8.01e-02     2s
   9   3.30827512e+03 -8.59660605e+02  1.40e-04 3.79e-13  4.01e-02     2s
  10   2.08692901e+03  3.49794280e+02  5.26e-05 3.69e-13  1.67e-02     2s
  11   1.65989719e+03  7.91549560e+02  2.48e-05 2.41e-13  8.36e-03     2s
  12   1.49796781e+03  9.96614487e+02  1.46e-05 4.14e-13  4.83e-03     2s
  13   1.37104423e+03  1.08816575e+03  7.08e-06 1.96e-13  2.72e-03     2s
  14   1.32333769e+03  1.16720831e+03  4.31e-06 2.62e-13  1.50e-03     2s
  15   1.28993875e+03  1.18837534e+03  2.41e-06 1.92e-13  9.78e-04     2s
  16   1.26828307e+03  1.21750940e+03  1.18e-06 2.56e-13  4.89e-04     2s
  17   1.25454279e+03  1.22822393e+03  4.56e-07 2.72e-13  2.53e-04     2s
  18   1.24709409e+03  1.24044337e+03  8.16e-08 2.55e-13  6.41e-05     2s
  19   1.24622584e+03  1.24377438e+03  4.24e-08 2.08e-13  2.36e-05     3s
  20   1.24550924e+03  1.24488967e+03  9.93e-09 2.31e-13  5.97e-06     3s
  21   1.24531339e+03  1.24523696e+03  1.46e-09 2.95e-13  7.36e-07     3s
  22   1.24528161e+03  1.24526999e+03  2.00e-09 2.58e-13  1.12e-07     3s
  23   1.24527550e+03  1.24527359e+03  2.73e-10 1.99e-13  1.84e-08     3s
  24   1.24527426e+03  1.24527413e+03  1.07e-09 2.75e-13  1.29e-09     3s
  25   1.24527424e+03  1.24527424e+03  4.01e-10 2.55e-13  1.30e-11     3s

Barrier solved model in 25 iterations and 3.21 seconds (0.50 work units)
Optimal objective 1.24527424e+03

Crossover log...

    8386 DPushes remaining with DInf 0.0000000e+00                 3s
       0 DPushes remaining with DInf 0.0000000e+00                 3s

     692 PPushes remaining with PInf 0.0000000e+00                 3s
       0 PPushes remaining with PInf 0.0000000e+00                 3s

  Push phase complete: Pinf 0.0000000e+00, Dinf 3.6286726e-12      3s

Iteration    Objective       Primal Inf.    Dual Inf.      Time
    2089    1.2452742e+03   0.000000e+00   0.000000e+00      3s

Solved in 2089 iterations and 3.45 seconds (0.61 work units)
Optimal objective  1.245274244e+03
